Maximize
  r
Subject To
 r_<_f(y0)_-_f(x): r + 61 w0 + 120 w1 + 170 w2 - 2 w3 + 9510 w4 + 42 w5
   <= 0
 r_<_f(y2)_-_f(x): r + 51 w0 + 120 w1 + 280 w2 - w3 + 9600 w4 + 27 w5 <= 0
 r_<_f(y3)_-_f(x): r + 41 w0 + 120 w1 + 318 w2 - 5800 w4 + 21 w5 <= 0
 r_<_f(y4)_-_f(x): r + 91 w0 + 160 w1 + 187 w2 - 4 w3 + 16350 w4 + 62 w5
   <= 0
 r_<_f(y5)_-_f(x): r + 49 w0 + 130 w1 + 152 w2 - w3 + 10200 w4 + 28 w5
   <= 0
 r_<_f(y6)_-_f(x): r + 39 w0 + 90 w1 + 155 w2 - w3 + 9650 w4 + 31 w5 <= 0
 r_<_f(y7)_-_f(x): r + 50 w1 + 110 w2 - w3 + 2705 w4 + 11 w5 <= 0
 r_<_f(y8)_-_f(x): r + 81 w0 + 150 w1 + 212 w2 - 3 w3 + 15800 w4 + 27 w5
   <= 0
 r_<_f(y9)_-_f(x): r + 24 w0 + 90 w1 + 97 w2 - w3 + 8900 w4 - 8 w5 <= 0
 r_<_f(y10)_-_f(x): r + 23 w0 + 70 w1 + 155 w2 - w3 + 8900 w4 + 41 w5 <= 0
 r_<_f(y11)_-_f(x): r + 23 w0 + 70 w1 + 155 w2 - w3 + 5500 w4 + 41 w5 <= 0
 r_<_f(y12)_-_f(x): r + 111 w0 + 180 w1 + 225 w2 - 4 w3 + 12330 w4 + 46 w5
   <= 0
 r_<_f(y13)_-_f(x): r + 31 w0 + 130 w1 + 111 w2 - w3 + 8850 w4 + 33 w5
   <= 0
 r_<_f(y14)_-_f(x): r + 11 w0 + 90 w1 + 111 w2 - w3 + 5800 w4 + 31 w5 <= 0
 r_<_f(y15)_-_f(x): r + 121 w0 + 195 w1 + 288 w2 - 4 w3 + 16535 w4 + 47 w5
   <= 0
 r_<_f(y16)_-_f(x): r + 39 w0 + 50 w1 + 46 w2 - w3 + 12010 w4 + 27 w5 <= 0
 r_<_f(y17)_-_f(x): r + 95 w0 + 210 w1 + 275 w2 - 3 w3 + 19020 w4 + 19 w5
   <= 0
 r_<_f(y18)_-_f(x): r + 81 w0 + 120 w1 + 103 w2 - 2 w3 + 11560 w4 + 56 w5
   <= 0
 r_<_f(y19)_-_f(x): r + 39 w0 + 50 w1 + 46 w2 - w3 + 8310 w4 + 27 w5 <= 0
 sum_wi_=_1: w0 + w1 + w2 + w3 + w4 + w5 = 1
Bounds
 w0 <= 1
 w1 <= 1
 w2 <= 1
 w3 <= 1
 w4 <= 1
 w5 <= 1
End
